(set-logic QF_S)
(declare-fun var0 () String)
(declare-fun var1 () String)
(declare-fun var2 () String)
(declare-fun var3 () String)
(declare-fun var4 () String)
(declare-fun var5 () String)
(declare-fun var6 () String)
(declare-fun var7 () String)
(declare-fun var8 () String)
(declare-fun var9 () String)
(declare-fun var10 () String)
(declare-fun var11 () String)
(declare-fun var12 () String)
(declare-fun var13 () String)
(declare-fun var14 () String)
(declare-fun var15 () String)
(declare-fun var16 () String)
(declare-fun var17 () String)
(declare-fun var18 () String)
(declare-fun var19 () String)
(declare-fun var20 () String)
(declare-fun var21 () String)
(declare-fun var22 () String)
(declare-fun var23 () String)
(declare-fun var24 () String)
(declare-fun var25 () String)
(declare-fun var26 () String)
(declare-fun var27 () String)
(declare-fun var28 () String)
(declare-fun var29 () String)
(declare-fun var30 () String)
(declare-fun var31 () String)
(declare-fun var32 () String)
(declare-fun var33 () String)
(declare-fun var34 () String)
(declare-fun var35 () String)
(declare-fun var36 () String)
(declare-fun var37 () String)
(declare-fun var38 () String)
(declare-fun var39 () String)
(declare-fun var40 () String)
(declare-fun var41 () String)
(declare-fun var42 () String)
(declare-fun var43 () String)
(declare-fun var44 () String)
(declare-fun var45 () String)
(declare-fun var46 () String)
(declare-fun var47 () String)
(declare-fun var48 () String)
(declare-fun var49 () String)
(declare-fun var50 () String)
(declare-fun var51 () String)
(declare-fun var52 () String)
(declare-fun var53 () String)
(declare-fun var54 () String)
(declare-fun var55 () String)
(declare-fun var56 () String)
(declare-fun var57 () String)
(declare-fun var58 () String)
(declare-fun var59 () String)
(declare-fun var60 () String)
(assert (= var0 (Concat var1 var2)))
(assert (= var2 (Concat var3 var4)))
(assert (= var4 (Concat var5 var6)))
(assert (= var6 (Concat var7 var8)))
(assert (= var8 (Concat var9 var10)))
(assert (= var10 (Concat var11 var12)))
(assert (= var12 (Concat var13 var14)))
(assert (= var14 (Concat var15 var16)))
(assert (= var16 (Concat var17 var18)))
(assert (= var18 (Concat var19 var20)))
(assert (= var20 (Concat var21 var22)))
(assert (= var22 (Concat var23 var24)))
(assert (= var24 (Concat var25 var26)))
(assert (= var26 (Concat var27 var28)))
(assert (= var28 (Concat var29 var30)))
(assert (= var30 (Concat var31 var32)))
(assert (= var32 (Concat var33 var34)))
(assert (= var34 (Concat var35 var36)))
(assert (= var36 (Concat var37 var38)))
(assert (= var38 (Concat var39 var40)))
(assert (= var40 (Concat var41 var42)))
(assert (= var42 (Concat var43 var44)))
(assert (= var44 (Concat var45 var46)))
(assert (= var46 (Concat var47 var48)))
(assert (= var48 (Concat var49 var50)))
(assert (= var50 (Concat var51 var52)))
(assert (= var52 (Concat var53 var54)))
(assert (= var54 (Concat var55 var56)))
(assert (= var56 (Concat var57 var58)))
(assert (= var58 (Concat var59 var60)))
(assert (= var0 "solution"))
(assert (= "@" (CharAt var46 332)))
(assert (= "l" (CharAt var59 551)))
(assert (= "S" (CharAt var57 910)))
(assert (= "~" (CharAt var2 270)))
(assert (= "5" (CharAt var19 902)))
(assert (= "h" (CharAt var43 168)))
(assert (= "u" (CharAt var6 167)))
(assert (= "<" (CharAt var52 375)))
(assert (= "<" (CharAt var59 980)))
(assert (= "B" (CharAt var50 486)))
(assert (= "7" (CharAt var31 176)))
(assert (= ">" (CharAt var25 67)))
(assert (= "4" (CharAt var23 864)))
(assert (= "i" (CharAt var10 274)))
(assert (= "?" (CharAt var58 273)))
(assert (= "q" (CharAt var42 788)))
(assert (= "+" (CharAt var27 379)))
(assert (= "O" (CharAt var17 228)))
(assert (= "4" (CharAt var37 471)))
(assert (= "(" (CharAt var14 517)))
(assert (= "=" (CharAt var25 487)))
(assert (= "o" (CharAt var35 592)))
(assert (= "'" (CharAt var5 892)))
(assert (= "7" (CharAt var25 356)))
(assert (= "t" (CharAt var35 7)))
(assert (= "v" (CharAt var49 590)))
(assert (= "+" (CharAt var46 842)))
(assert (= "K" (CharAt var58 181)))
(assert (= "S" (CharAt var53 48)))
(assert (= "Y" (CharAt var36 902)))
(assert (= "$" (CharAt var7 185)))
(assert (= "*" (CharAt var7 557)))
(assert (= "z" (CharAt var6 37)))
(assert (= "1" (CharAt var35 32)))
(assert (= "o" (CharAt var24 875)))
(assert (= "D" (CharAt var57 522)))
(assert (= "z" (CharAt var7 393)))
(assert (= "r" (CharAt var11 358)))
(assert (= "G" (CharAt var44 863)))
(assert (= "\"" (CharAt var12 659)))
(assert (= "L" (CharAt var19 583)))
(assert (= "4" (CharAt var48 755)))
(assert (= "7" (CharAt var50 795)))
(assert (= "&" (CharAt var41 858)))
(assert (= "X" (CharAt var26 549)))
(assert (= "/" (CharAt var26 685)))
(assert (= "\"" (CharAt var24 375)))
(assert (= "j" (CharAt var11 310)))
(assert (= "Z" (CharAt var12 842)))
(assert (= "m" (CharAt var29 887)))
(assert (= "P" (CharAt var2 387)))
(assert (= "/" (CharAt var7 560)))
(assert (= "H" (CharAt var40 595)))
(assert (= "l" (CharAt var8 914)))
(assert (= "s" (CharAt var60 382)))
(assert (= "2" (CharAt var36 67)))
(assert (= "z" (CharAt var45 127)))
(assert (= "&" (CharAt var50 701)))
(assert (= "z" (CharAt var21 770)))
(assert (= "d" (CharAt var41 700)))
(assert (= "H" (CharAt var38 375)))
(assert (= "W" (CharAt var23 800)))
(assert (= "G" (CharAt var17 111)))
(assert (= "3" (CharAt var5 506)))
(assert (= "_" (CharAt var41 315)))
(assert (= "a" (CharAt var58 308)))
(assert (= "}" (CharAt var51 47)))
(assert (= "*" (CharAt var39 916)))
(assert (= "q" (CharAt var5 710)))
(assert (= "G" (CharAt var58 545)))
(assert (= "9" (CharAt var56 298)))
(assert (= "b" (CharAt var50 823)))
(assert (= "t" (CharAt var58 860)))
(assert (= "I" (CharAt var43 72)))
(assert (= "&" (CharAt var42 947)))
(assert (= "O" (CharAt var23 667)))
(assert (= "7" (CharAt var1 1)))
(assert (= "d" (CharAt var33 92)))
(assert (= "D" (CharAt var60 721)))
(assert (= "4" (CharAt var44 536)))
(assert (= "x" (CharAt var14 681)))
(assert (= "^" (CharAt var52 510)))
(assert (= "T" (CharAt var43 747)))
(assert (= "%" (CharAt var35 538)))
(assert (= "I" (CharAt var14 193)))
(assert (= "/" (CharAt var14 176)))
(assert (= "6" (CharAt var0 187)))
(assert (= "!" (CharAt var57 830)))
(assert (= "T" (CharAt var51 9)))
(assert (= "s" (CharAt var6 159)))
(assert (= "^" (CharAt var55 425)))
(assert (= "G" (CharAt var52 835)))
(assert (= "g" (CharAt var39 379)))
(assert (= "i" (CharAt var35 358)))
(assert (= "g" (CharAt var45 486)))
(assert (= "`" (CharAt var3 174)))
(assert (= "q" (CharAt var21 87)))
(assert (= "p" (CharAt var24 871)))
(assert (= "Y" (CharAt var33 530)))
(assert (= "D" (CharAt var31 63)))
(assert (= "V" (CharAt var31 937)))
(assert (= "L" (CharAt var45 452)))
(assert (= "Q" (CharAt var54 357)))
(assert (= "N" (CharAt var0 725)))
(assert (= "}" (CharAt var20 170)))
(assert (= "d" (CharAt var18 308)))
(assert (= "p" (CharAt var54 235)))
(assert (= "g" (CharAt var27 760)))
(assert (= "o" (CharAt var25 634)))
(assert (= "A" (CharAt var4 103)))
(assert (= "r" (CharAt var32 60)))
(assert (= "0" (CharAt var26 584)))
(assert (= ">" (CharAt var53 425)))
(assert (= "B" (CharAt var3 538)))
(assert (= "p" (CharAt var59 941)))
(assert (= "E" (CharAt var21 91)))
(assert (= "$" (CharAt var8 803)))
(assert (= "o" (CharAt var42 448)))
(assert (= "-" (CharAt var55 766)))
(assert (= "^" (CharAt var52 998)))
(assert (= "a" (CharAt var52 794)))
(assert (= "_" (CharAt var56 615)))
(assert (= ">" (CharAt var13 638)))
(assert (= "o" (CharAt var30 963)))
(assert (= "$" (CharAt var47 887)))
(assert (= "2" (CharAt var8 423)))
(assert (= "A" (CharAt var2 536)))
(assert (= "M" (CharAt var43 477)))
(assert (= "^" (CharAt var3 86)))
(assert (= "F" (CharAt var33 196)))
(assert (= "t" (CharAt var40 93)))
(assert (= "a" (CharAt var44 902)))
(assert (= "." (CharAt var2 13)))
(assert (= "N" (CharAt var24 351)))
(assert (= "l" (CharAt var4 818)))
(assert (= "5" (CharAt var47 680)))
(assert (= "g" (CharAt var12 957)))
(assert (= "f" (CharAt var19 431)))
(assert (= "1" (CharAt var5 65)))
(assert (= "g" (CharAt var18 822)))
(assert (= "7" (CharAt var17 723)))
(assert (= "Z" (CharAt var48 59)))
(assert (= "s" (CharAt var30 93)))
(assert (= "P" (CharAt var14 889)))
(assert (= "H" (CharAt var7 245)))
(assert (= "\\" (CharAt var51 779)))
(assert (= "R" (CharAt var44 613)))
(assert (= "P" (CharAt var4 375)))
(assert (= "c" (CharAt var8 935)))
(assert (= "W" (CharAt var39 410)))
(assert (= "(" (CharAt var23 521)))
(assert (= "6" (CharAt var24 296)))
(assert (= ")" (CharAt var34 993)))
(assert (= "p" (CharAt var39 756)))
(assert (= "R" (CharAt var23 317)))
(assert (= "i" (CharAt var1 544)))
(assert (= "L" (CharAt var55 530)))
(assert (= "," (CharAt var10 114)))
(assert (= "d" (CharAt var58 10)))
(assert (= "`" (CharAt var34 930)))
(assert (= "\"" (CharAt var56 243)))
(assert (= "a" (CharAt var8 370)))
(assert (= "w" (CharAt var56 968)))
(assert (= "l" (CharAt var38 281)))
(assert (= "R" (CharAt var28 673)))
(assert (= "<" (CharAt var54 748)))
(assert (= ">" (CharAt var29 901)))
(assert (= "#" (CharAt var45 821)))
(assert (= "8" (CharAt var18 744)))
(assert (= "p" (CharAt var15 975)))
(assert (= "," (CharAt var13 936)))
(assert (= "a" (CharAt var38 270)))
(assert (= "l" (CharAt var44 766)))
(assert (= "?" (CharAt var27 897)))
(assert (= "C" (CharAt var27 900)))
(assert (= "j" (CharAt var40 715)))
(assert (= "a" (CharAt var38 672)))
(assert (= "s" (CharAt var4 231)))
(assert (= "+" (CharAt var46 670)))
(assert (= "1" (CharAt var52 912)))
(assert (= "$" (CharAt var26 407)))
(assert (= "l" (CharAt var19 344)))
(assert (= "j" (CharAt var32 103)))
(assert (= "Y" (CharAt var51 971)))
(assert (= "^" (CharAt var18 151)))
(assert (= "E" (CharAt var32 387)))
(assert (= "'" (CharAt var45 711)))
(assert (= "x" (CharAt var53 549)))
(assert (= ":" (CharAt var5 222)))
(assert (= "~" (CharAt var0 782)))
(assert (= "D" (CharAt var60 78)))
(assert (= ":" (CharAt var47 176)))
(assert (= "}" (CharAt var4 554)))
(assert (= "F" (CharAt var2 424)))
(assert (= "(" (CharAt var18 278)))
(assert (= "R" (CharAt var53 385)))
(assert (= "i" (CharAt var21 756)))
(assert (= "\\" (CharAt var36 120)))
(assert (= "n" (CharAt var39 803)))
(assert (= "A" (CharAt var7 739)))
(assert (= "u" (CharAt var17 881)))
(assert (= "!" (CharAt var4 108)))
(assert (= "Y" (CharAt var10 611)))
(assert (= "l" (CharAt var44 844)))
(assert (= "s" (CharAt var60 374)))
(assert (= "u" (CharAt var0 382)))
(assert (= "d" (CharAt var46 97)))
(assert (= "p" (CharAt var0 564)))
(assert (= "7" (CharAt var6 715)))
(assert (= "-" (CharAt var0 726)))
(assert (= "l" (CharAt var28 754)))
(assert (= "@" (CharAt var21 501)))
(assert (= "e" (CharAt var26 864)))
(assert (= "D" (CharAt var60 705)))
(assert (= "A" (CharAt var33 388)))
(assert (= "f" (CharAt var13 618)))
(assert (= "j" (CharAt var20 162)))
(assert (= "q" (CharAt var29 442)))
(assert (= "e" (CharAt var32 16)))
(assert (= ">" (CharAt var43 838)))
(assert (= "3" (CharAt var48 714)))
(assert (= "J" (CharAt var2 721)))
(assert (= "W" (CharAt var43 938)))
(assert (= "J" (CharAt var8 426)))
(assert (= "T" (CharAt var4 765)))
(assert (= "b" (CharAt var49 776)))
(assert (= "h" (CharAt var21 921)))
(assert (= "p" (CharAt var11 454)))
(assert (= "6" (CharAt var29 56)))
(assert (= ")" (CharAt var32 794)))
(assert (= "'" (CharAt var45 65)))
(assert (= "K" (CharAt var39 497)))
(assert (= "f" (CharAt var41 222)))
(assert (= "b" (CharAt var9 603)))
(assert (= "Z" (CharAt var5 256)))
(assert (= "b" (CharAt var30 361)))
(assert (= "2" (CharAt var15 242)))
(assert (= "U" (CharAt var20 680)))
(assert (= "e" (CharAt var43 608)))
(assert (= "e" (CharAt var25 603)))
(assert (= "i" (CharAt var35 384)))
(assert (= "`" (CharAt var49 80)))
(assert (= "/" (CharAt var34 942)))
(assert (= "B" (CharAt var9 75)))
(assert (= "|" (CharAt var25 744)))
(assert (= "m" (CharAt var6 828)))
(assert (= "k" (CharAt var0 198)))
(assert (= "l" (CharAt var52 112)))
(assert (= "v" (CharAt var20 311)))
(assert (= "I" (CharAt var17 511)))
(assert (= "u" (CharAt var5 480)))
(assert (= "w" (CharAt var15 73)))
(assert (= "j" (CharAt var39 601)))
(assert (= "L" (CharAt var27 316)))
(assert (= "m" (CharAt var21 892)))
(assert (= "k" (CharAt var21 65)))
(assert (= "T" (CharAt var3 339)))
(assert (= "&" (CharAt var15 531)))
(assert (= "j" (CharAt var39 206)))
(assert (= "^" (CharAt var8 120)))
(assert (= "6" (CharAt var38 732)))
(assert (= "P" (CharAt var9 423)))
(assert (= "," (CharAt var49 115)))
(assert (= "7" (CharAt var21 260)))
(assert (= "X" (CharAt var12 956)))
(assert (= "G" (CharAt var60 794)))
(assert (= "3" (CharAt var21 236)))
(assert (= "Q" (CharAt var57 723)))
(assert (= "I" (CharAt var59 378)))
(assert (= "d" (CharAt var13 725)))
(assert (= "V" (CharAt var6 870)))
(assert (= "^" (CharAt var8 814)))
(assert (= "?" (CharAt var16 294)))
(assert (= "&" (CharAt var24 874)))
(assert (= "D" (CharAt var3 536)))
(assert (= "R" (CharAt var33 994)))
(assert (= "Z" (CharAt var16 710)))
(assert (= "1" (CharAt var18 27)))
(assert (= "q" (CharAt var59 175)))
(assert (= "8" (CharAt var8 23)))
(assert (= "g" (CharAt var30 66)))
(assert (= "k" (CharAt var39 743)))
(assert (= "b" (CharAt var58 413)))
(assert (= "}" (CharAt var13 666)))
(assert (= "f" (CharAt var47 699)))
(assert (= "Q" (CharAt var12 914)))
(assert (= "g" (CharAt var24 231)))
(assert (= "^" (CharAt var0 835)))
(assert (= "}" (CharAt var5 254)))
(assert (= "$" (CharAt var13 758)))
(assert (= "0" (CharAt var55 519)))
(assert (= "E" (CharAt var53 299)))
(assert (= "G" (CharAt var31 190)))
(assert (= "P" (CharAt var57 500)))
(assert (= "U" (CharAt var5 667)))
(assert (= "q" (CharAt var8 281)))
(assert (= "M" (CharAt var44 188)))
(assert (= "a" (CharAt var6 548)))
(assert (= "]" (CharAt var2 512)))
(assert (= "2" (CharAt var59 784)))
(assert (= "@" (CharAt var38 357)))
(assert (= "/" (CharAt var4 436)))
(assert (= "P" (CharAt var38 289)))
(assert (= "p" (CharAt var41 7)))
(assert (= "B" (CharAt var60 813)))
(assert (= "]" (CharAt var14 119)))
(assert (= "a" (CharAt var6 646)))
(assert (= "g" (CharAt var41 471)))
(assert (= "b" (CharAt var26 243)))
(assert (= "I" (CharAt var22 37)))
(assert (= "W" (CharAt var5 477)))
(assert (= "]" (CharAt var0 183)))
(assert (= "A" (CharAt var5 259)))
(assert (= "|" (CharAt var33 561)))
(assert (= "j" (CharAt var16 856)))
(assert (= "." (CharAt var59 844)))
(assert (= "+" (CharAt var44 568)))
(assert (= "k" (CharAt var31 837)))
(assert (= "Q" (CharAt var57 477)))
(assert (= "j" (CharAt var36 413)))
(assert (= ";" (CharAt var0 721)))
(assert (= "-" (CharAt var17 958)))
(assert (= "Z" (CharAt var59 493)))
(assert (= "}" (CharAt var50 50)))
(assert (= "+" (CharAt var51 288)))
(assert (= "-" (CharAt var6 506)))
(assert (= "!" (CharAt var52 18)))
(assert (= "z" (CharAt var15 976)))
(assert (= "v" (CharAt var19 686)))
(assert (= "0" (CharAt var19 530)))
(assert (= "&" (CharAt var31 186)))
(assert (= ">" (CharAt var9 455)))
(assert (= "X" (CharAt var15 24)))
(assert (= "i" (CharAt var12 189)))
(assert (= "%" (CharAt var4 224)))
(assert (= "$" (CharAt var38 631)))
(assert (= "n" (CharAt var4 342)))
(assert (= "=" (CharAt var10 445)))
(assert (= "s" (CharAt var13 378)))
(assert (= "l" (CharAt var24 205)))
(assert (= "O" (CharAt var17 500)))
(assert (= "x" (CharAt var25 485)))
(assert (= "R" (CharAt var5 279)))
(assert (= "Q" (CharAt var54 331)))
(assert (= "@" (CharAt var42 854)))
(assert (= "S" (CharAt var29 837)))
(assert (= ":" (CharAt var24 473)))
(assert (= "\\" (CharAt var29 158)))
(assert (= "C" (CharAt var48 771)))
(assert (= "}" (CharAt var45 911)))
(assert (= "T" (CharAt var25 176)))
(assert (= "u" (CharAt var11 175)))
(assert (= "_" (CharAt var3 472)))
(assert (= "a" (CharAt var6 757)))
(assert (= "b" (CharAt var59 438)))
(assert (= "`" (CharAt var16 620)))
(assert (= "T" (CharAt var12 343)))
(assert (= "9" (CharAt var60 499)))
(assert (= "v" (CharAt var60 565)))
(assert (= "3" (CharAt var0 962)))
(assert (= "3" (CharAt var57 697)))
(assert (= "," (CharAt var13 871)))
(assert (= "[" (CharAt var24 286)))
(assert (= "j" (CharAt var55 138)))
(assert (= "u" (CharAt var35 861)))
(assert (= "/" (CharAt var42 869)))
(assert (= "_" (CharAt var29 448)))
(assert (= "4" (CharAt var2 184)))
(assert (= "8" (CharAt var39 737)))
(assert (= "X" (CharAt var59 718)))
(assert (= "Q" (CharAt var59 117)))
(assert (= "R" (CharAt var53 351)))
(assert (= "." (CharAt var12 434)))
(assert (= "G" (CharAt var45 823)))
(assert (= "n" (CharAt var20 484)))
(assert (= "*" (CharAt var52 762)))
(assert (= "h" (CharAt var39 697)))
(assert (= "H" (CharAt var35 409)))
(assert (= "2" (CharAt var37 818)))
(assert (= "K" (CharAt var2 975)))
(assert (= "i" (CharAt var58 642)))
(assert (= "z" (CharAt var41 648)))
(assert (= "I" (CharAt var44 171)))
(assert (= "o" (CharAt var25 54)))
(assert (= "_" (CharAt var7 56)))
(assert (= "U" (CharAt var7 77)))
(assert (= "3" (CharAt var44 353)))
(assert (= "R" (CharAt var24 583)))
(assert (= "G" (CharAt var5 757)))
(assert (= "i" (CharAt var10 326)))
(assert (= "*" (CharAt var15 773)))
(assert (= ":" (CharAt var58 765)))
(assert (= "L" (CharAt var49 481)))
(assert (= "s" (CharAt var15 160)))
(assert (= "-" (CharAt var38 171)))
(assert (= ">" (CharAt var29 313)))
(assert (= "1" (CharAt var54 632)))
(assert (= "Y" (CharAt var13 478)))
(assert (= "n" (CharAt var10 563)))
(assert (= "0" (CharAt var16 366)))
(assert (= "," (CharAt var34 695)))
(assert (= "Z" (CharAt var37 348)))
(assert (= "q" (CharAt var52 281)))
(assert (= "A" (CharAt var58 702)))
(assert (= "|" (CharAt var33 933)))
(assert (= "K" (CharAt var5 30)))
(assert (= "M" (CharAt var47 918)))
(assert (= "m" (CharAt var55 398)))
(assert (= "J" (CharAt var9 778)))
(assert (= "\"" (CharAt var55 302)))
(assert (= "D" (CharAt var28 494)))
(assert (= ";" (CharAt var40 656)))
(assert (= "M" (CharAt var1 256)))
(assert (= "&" (CharAt var9 829)))
(assert (= "I" (CharAt var24 348)))
(assert (= "z" (CharAt var16 261)))
(assert (= "X" (CharAt var55 24)))
(assert (= "b" (CharAt var3 257)))
(assert (= "/" (CharAt var19 295)))
(assert (= "$" (CharAt var39 714)))
(assert (= "i" (CharAt var32 463)))
(assert (= "L" (CharAt var30 765)))
(assert (= "V" (CharAt var19 25)))
(assert (= "v" (CharAt var27 113)))
(assert (= "&" (CharAt var45 551)))
(assert (= "{" (CharAt var10 678)))
(assert (= "r" (CharAt var31 697)))
(assert (= "-" (CharAt var46 653)))
(assert (= "+" (CharAt var36 611)))
(assert (= "0" (CharAt var19 606)))
(assert (= "x" (CharAt var30 98)))
(assert (= "t" (CharAt var16 427)))
(assert (= "o" (CharAt var42 85)))
(assert (= "D" (CharAt var5 207)))
(assert (= "|" (CharAt var1 427)))
(assert (= "g" (CharAt var40 734)))
(assert (= "{" (CharAt var33 962)))
(assert (= "{" (CharAt var1 373)))
(assert (= "C" (CharAt var9 900)))
(assert (= "`" (CharAt var3 940)))
(assert (= "a" (CharAt var11 661)))
(assert (= "(" (CharAt var8 886)))
(assert (= "9" (CharAt var45 309)))
(assert (= "%" (CharAt var39 884)))
(assert (= "Q" (CharAt var35 616)))
(assert (= "C" (CharAt var49 184)))
(assert (= "I" (CharAt var2 967)))
(assert (= "B" (CharAt var33 43)))
(assert (= "Z" (CharAt var36 126)))
(assert (= "7" (CharAt var38 646)))
(assert (= "m" (CharAt var8 147)))
(assert (= ":" (CharAt var20 540)))
(assert (= "'" (CharAt var11 399)))
(assert (= "8" (CharAt var39 521)))
(assert (= "P" (CharAt var60 788)))
(assert (= "@" (CharAt var53 636)))
(assert (= ";" (CharAt var19 536)))
(assert (= "7" (CharAt var39 653)))
(assert (= "D" (CharAt var1 508)))
(assert (= "u" (CharAt var46 305)))
(assert (= "b" (CharAt var41 189)))
(assert (= "<" (CharAt var34 964)))
(assert (= "p" (CharAt var28 908)))
(assert (= "n" (CharAt var43 185)))
(assert (= "?" (CharAt var35 43)))
(assert (= "\\" (CharAt var29 160)))
(assert (= "$" (CharAt var26 829)))
(assert (= "1" (CharAt var16 845)))
(assert (= "9" (CharAt var1 786)))
(assert (= "I" (CharAt var38 410)))
(assert (= "m" (CharAt var2 400)))
(assert (= "U" (CharAt var28 351)))
(assert (= "Y" (CharAt var45 312)))
(assert (= ")" (CharAt var47 756)))
(assert (= "{" (CharAt var46 186)))
(assert (= "e" (CharAt var6 253)))
(assert (= "u" (CharAt var29 433)))
(assert (= "=" (CharAt var12 671)))
(assert (= ":" (CharAt var18 555)))
(assert (= "\"" (CharAt var56 918)))
(assert (= "9" (CharAt var43 715)))
(assert (= "i" (CharAt var37 13)))
(assert (= ")" (CharAt var7 682)))
(assert (= ")" (CharAt var45 246)))
(assert (= "m" (CharAt var20 44)))
(assert (= "M" (CharAt var18 325)))
(assert (= "m" (CharAt var13 838)))
(assert (= "q" (CharAt var60 707)))
(assert (= "b" (CharAt var10 233)))
(assert (= "P" (CharAt var25 601)))
(assert (= "p" (CharAt var58 980)))
(assert (= "{" (CharAt var17 180)))
(assert (= ";" (CharAt var12 465)))
(assert (= "D" (CharAt var27 3)))
(assert (= "," (CharAt var55 861)))
(assert (= "M" (CharAt var32 726)))
(assert (= "2" (CharAt var28 666)))
(assert (= ">" (CharAt var26 304)))
(assert (= "~" (CharAt var60 963)))
(assert (= "]" (CharAt var60 56)))
(assert (= "S" (CharAt var45 218)))
(assert (= "q" (CharAt var36 997)))
(assert (= "-" (CharAt var37 587)))
(assert (= "6" (CharAt var42 12)))
(assert (= "|" (CharAt var47 788)))
(assert (= "z" (CharAt var6 991)))
(assert (= "(" (CharAt var18 336)))
(assert (= "Y" (CharAt var7 243)))
(assert (= "@" (CharAt var49 953)))
(assert (= "C" (CharAt var48 239)))
(assert (= "Q" (CharAt var16 106)))
(assert (= "+" (CharAt var35 105)))
(assert (= "j" (CharAt var54 684)))
(assert (= "I" (CharAt var12 561)))
(assert (= "*" (CharAt var44 181)))
(assert (= "u" (CharAt var36 484)))
(assert (= "(" (CharAt var51 612)))
(assert (= "$" (CharAt var36 903)))
(assert (= "|" (CharAt var33 920)))
(assert (= "B" (CharAt var36 113)))
(assert (= ";" (CharAt var26 756)))
(assert (= "h" (CharAt var26 322)))
(assert (= "@" (CharAt var56 426)))
(assert (= "e" (CharAt var2 772)))
(assert (= "c" (CharAt var60 843)))
(assert (= "-" (CharAt var3 247)))
(assert (= "!" (CharAt var52 240)))
(assert (= "W" (CharAt var6 343)))
(assert (= "u" (CharAt var31 504)))
(assert (= "m" (CharAt var37 751)))
(assert (= "D" (CharAt var17 524)))
(assert (= "*" (CharAt var21 95)))
(assert (= "T" (CharAt var33 779)))
(assert (= "}" (CharAt var11 81)))
(assert (= "r" (CharAt var43 466)))
(assert (= "3" (CharAt var54 238)))
(assert (= "s" (CharAt var55 729)))
(assert (= "Z" (CharAt var4 180)))
(assert (= "O" (CharAt var53 380)))
(assert (= "R" (CharAt var50 169)))
(assert (= "~" (CharAt var8 4)))
(assert (= "\"" (CharAt var46 921)))
(assert (= "n" (CharAt var1 131)))
(assert (= "{" (CharAt var48 522)))
(assert (= "Y" (CharAt var14 337)))
(assert (= "!" (CharAt var60 570)))
(assert (= ":" (CharAt var36 901)))
(assert (= "M" (CharAt var36 706)))
(assert (= "," (CharAt var49 720)))
(assert (= "B" (CharAt var0 440)))
(assert (= "(" (CharAt var29 834)))
(assert (= "'" (CharAt var33 632)))
(assert (= "8" (CharAt var25 860)))
(assert (= "q" (CharAt var2 65)))
(assert (= ">" (CharAt var11 287)))
(assert (= "/" (CharAt var39 30)))
(assert (= ">" (CharAt var36 302)))
(assert (= "h" (CharAt var32 893)))
(assert (= "j" (CharAt var58 475)))
(assert (= "=" (CharAt var7 499)))
(assert (= "." (CharAt var0 571)))
(check-sat)